p cnf 21 49
a 12 5 0
e 1 2 3 4 6 7 8 9 10 11 13 14 15 16 17 18 19 20 21 0
2 3 -4 0
-2 -3 -4 0
2 -3 4 0
-2 3 4 0
-5 1 0
-5 -4 0
-1 4 5 0
6 -7 -8 0
-6 7 -8 0
6 7 8 0
-6 -7 8 0
10 -3 0
10 -9 0
3 9 -10 0
-11 8 0
-11 10 0
-8 -10 11 0
5 11 -12 0
-5 -11 -12 0
5 -11 12 0
-5 11 12 0
-14 -13 0
-14 2 0
13 -2 14 0
-15 14 0
-15 13 0
-14 -13 15 0
-17 -6 0
-17 16 0
6 -16 17 0
15 -17 -18 0
-15 17 -18 0
15 17 18 0
-15 -17 18 0
-19 3 0
-19 -13 0
-3 13 19 0
18 19 -20 0
-18 -19 -20 0
18 -19 20 0
-18 19 20 0
21 12 0
21 -20 0
-12 20 -21 0
6 -4 5 0
8 -16 14 -13 -17 0
11 14 10 -4 -9 0
-19 -11 -8 -16 -15 1 0
21 0
